5 5
4 42 3 85 2 33 0 57 1 37
4 57 3 98 2 62 1 3 0 30
3 67 2 63 4 82 0 23 1 72
4 73 1 66 2 61 0 2 3 27
2 48 3 63 1 5 0 1 4 22
-1
0 1 2 3 5
0 2 4 5
0 2 3 4 5
0 1 2 3 5
0 2 3 4 5
-2
52 140 170 293
170 310 394
180 313 275 490
112 201 240 268
115 179 168 203

394 13
13 3 18 23 9
16 14 8 22 4
20 11 7 2 17
10 6 1 21 19
5 15 0 12 24
